p cnf 80 87
-1 -2 0
-1 -3 0
-1 -4 0
-5 -6 0
-7 -6 0
-6 -8 0
-9 -10 0
-9 -11 0
-9 -12 0
-13 -14 0
-15 -14 0
-14 -16 0
-17 18 0
19 17 -18 0
18 20 -21 0
21 22 -23 0
23 24 -25 0
25 26 -27 0
27 28 0
29 30 -31 0
31 32 -33 0
33 34 -35 0
35 36 -37 0
37 38 -39 0
39 40 0
41 17 -42 0
42 43 -44 0
44 45 -46 0
46 47 -48 0
48 49 -50 0
50 51 0
52 30 -53 0
53 54 -55 0
55 56 -57 0
57 58 -59 0
59 60 -61 0
61 62 0
-20 63 0
-22 2 0
-24 3 0
-26 3 0
-28 4 0
-32 7 0
-34 63 0
-36 7 0
-38 8 0
-40 5 0
-43 64 0
-45 10 0
-47 11 0
-49 11 0
-51 12 0
-54 15 0
-58 15 0
-60 16 0
-62 13 0
-19 -1 -65 0
65 66 0
-19 2 -67 0
67 -63 0
-29 -66 -68 0
68 5 0
-29 -63 -69 0
69 7 0
-41 -9 -70 0
70 71 0
-52 -71 -72 0
72 13 0
-52 -64 -73 0
73 15 0
-17 -1 -74 0
74 66 0
-17 2 -75 0
75 -63 0
-30 -66 -76 0
76 5 0
-30 -63 -77 0
77 7 0
-17 -30 0
1 0
9 0
-78 -79 0
-34 78 0
-56 79 0
6 0
14 0
80 0
